p cnf 47 137
a 1 42 0
e 2 3 4 5 6 7 8 9 10 11 12 13 14 15 16 17 18 19 20 21 22 23 24 25 26 27 28 29 30 31 32 33 34 35 36 37 38 39 40 41 43 44 45 46 47 0
-3 -4 -5 0
3 4 -5 0
-3 4 5 0
3 -4 5 0
6 2 0
6 5 0
-2 -5 -6 0
-1 -6 -7 0
1 6 -7 0
-1 6 7 0
1 -6 7 0
-7 4 -8 0
7 -4 -8 0
-7 -4 8 0
7 4 8 0
10 -9 0
10 9 0
-11 10 0
-11 6 0
-10 -6 11 0
12 -5 0
12 11 0
5 -11 -12 0
8 -12 -13 0
-8 12 -13 0
8 12 13 0
-8 -12 13 0
15 2 0
15 7 0
-2 -7 -15 0
16 14 0
16 15 0
-14 -15 -16 0
17 -13 0
17 -16 0
13 16 -17 0
18 5 0
18 10 0
-5 -10 -18 0
19 -17 0
19 18 0
17 -18 -19 0
-21 3 0
-21 -20 0
-3 20 21 0
-23 3 0
-23 10 0
-3 -10 23 0
-24 -22 0
-24 -23 0
22 23 24 0
25 21 0
25 -24 0
-21 24 -25 0
27 -2 -28 0
-27 2 -28 0
27 2 28 0
-27 -2 28 0
-26 28 -29 0
26 -28 -29 0
-26 -28 29 0
26 28 29 0
29 -15 -30 0
-29 15 -30 0
29 15 30 0
-29 -15 30 0
31 4 0
31 30 0
-4 -30 -31 0
25 -31 -32 0
-25 31 -32 0
25 31 32 0
-25 -31 32 0
33 -19 0
33 -32 0
19 32 -33 0
-34 27 0
-34 4 0
-27 -4 34 0
-35 -33 0
-35 -34 0
33 34 35 0
36 12 0
36 -10 0
-12 10 -36 0
37 -35 0
37 36 0
35 -36 -37 0
-38 3 0
-38 1 0
-3 -1 38 0
26 14 -39 0
-26 -14 -39 0
26 -14 39 0
-26 14 39 0
-22 -9 -40 0
22 9 -40 0
-22 9 40 0
22 -9 40 0
-41 39 0
-41 -40 0
-39 40 41 0
38 41 -42 0
-38 -41 -42 0
38 -41 42 0
-38 41 42 0
-43 -37 0
-43 42 0
37 -42 43 0
44 -3 0
44 -26 0
3 26 -44 0
6 -22 -45 0
-6 22 -45 0
6 22 45 0
-6 -22 45 0
-44 -45 -46 0
44 45 -46 0
-44 45 46 0
44 -45 46 0
-43 46 -47 0
43 -46 -47 0
-43 -46 47 0
43 46 47 0
-3 7 -33 44 15 0
26 -9 36 0
-35 36 -25 -28 31 -42 -41 0
-39 -16 -24 -32 0
47 -45 2 -22 32 41 -31 0
-13 -23 -26 45 0
2 -34 -6 22 0
-43 41 -9 -24 39 0
-22 -4 42 33 29 25 0
28 7 21 5 -11 0
33 4 43 11 -9 -2 18 0
41 -36 -35 34 29 -26 -21 0
47 0
